Route #1: 1 26 54 7 25 46 42 43 30 16
Route #2: 1 28 53 2 17 36 49 37 50 4
Route #3: 1 38 5 40 8 27 48 33
Route #4: 1 14 34 3 35 55 31 56 32 21 12 11 44
Route #5: 1 47 9 29 52 15 45 41 18
Route #6: 1 10 13 51 23 39 24 6 19 20
Route #7: 1 22
cost 836
